(set-logic HORN)
(set-info :source |
  Benchmark: ../golem/build/RealCodeNested/originalcodeSortVarsZ3sceleton3.c
  Generated by Korn 0.4 https://github.com/gernst/korn
|)


(declare-fun __assert_fail (Int Int Int Int) Bool)
(declare-fun $main_sum1 (Int Int Int Int Int Int Int Int Int Int) Bool)
(declare-fun $main_inv4 (Int Int Int Int Int Int Int Int Int Int) Bool)
(declare-fun $main_inv1 (Int Int Int Int Int Int Int Int Int Int) Bool)
(declare-fun $__VERIFIER_assert_pre (Int) Bool)
(declare-fun $__VERIFIER_assert_if1 (Int Int) Bool)
(declare-fun $main_if3 (Int Int Int Int Int Int Int Int Int Int Int Int Int Int Int Int Int Int Int Int) Bool)
(declare-fun $main_if5 (Int Int Int Int Int Int Int Int Int Int Int Int Int Int Int Int Int Int Int Int) Bool)
(declare-fun $main_sum2 (Int Int Int Int Int Int Int Int Int Int) Bool)
(declare-fun $main_start (Int Int Int Int Int Int Int Int Int Int Int Int Int Int Int Int Int Int Int Int) Bool)
(declare-fun $main_if2 (Int Int Int Int Int Int Int Int Int Int Int Int Int Int Int Int Int Int Int Int) Bool)
(declare-fun $main_loop (Int Int Int Int Int Int Int Int Int Int Int Int Int Int Int Int Int Int Int Int) Bool)
(declare-fun $main_if6 (Int Int Int Int Int Int Int Int Int Int Int Int Int Int Int Int Int Int Int Int) Bool)
(declare-fun $main_if4 (Int Int Int Int Int Int Int Int Int Int Int Int Int Int Int Int Int Int Int Int) Bool)
(declare-fun $main_sum4 (Int Int Int Int Int Int Int Int Int Int) Bool)
(declare-fun __VERIFIER_assert (Int) Bool)
(declare-fun $main_if7 (Int Int Int Int Int Int Int Int Int Int Int Int Int Int Int Int Int Int Int Int) Bool)
(declare-fun $__assert_fail_pre (Int Int Int Int) Bool)
(declare-fun $main_sum3 (Int Int Int Int Int Int Int Int Int Int) Bool)
(declare-fun $main_inv3 (Int Int Int Int Int Int Int Int Int Int) Bool)
(declare-fun $main_inv2 (Int Int Int Int Int Int Int Int Int Int) Bool)
(declare-fun $__VERIFIER_assert_ERROR (Int Int) Bool)

; label ERROR
(assert
  (forall ((cond!1 Int))
    (=> (and (not (not (= cond!1 0)))
             ($__VERIFIER_assert_pre cond!1))
        ($__VERIFIER_assert_ERROR cond!1 cond!1))))

; error
(assert
  (forall ((cond!1 Int) (cond!2 Int))
    (=> (and ($__VERIFIER_assert_ERROR cond!1 cond!2))
        false)))

; if else
(assert
  (forall ((cond!1 Int))
    (=> (and (not (not (not (= cond!1 0))))
             ($__VERIFIER_assert_pre cond!1))
        ($__VERIFIER_assert_if1 cond!1 cond!1))))

; post __VERIFIER_assert
(assert
  (forall ((cond!1 Int) (cond!3 Int))
    (=> (and ($__VERIFIER_assert_if1 cond!1 cond!3))
        (__VERIFIER_assert cond!1))))

; loop entry $main_inv1 (line 18)
(assert
  (forall ((caseS!12 Int) (h!8 Int) (todo_size!10 Int) (done!11 Int) (found!6 Int) (order_reset!5 Int) (t!9 Int) (num_vars!4 Int) (i!7 Int) (num!13 Int))
    (=> (and (<= 0 h!8)
             (<= h!8 1)
             (= i!7 0)
             (= found!6 0)
             (= order_reset!5 0)
             (<= 50 num_vars!4)
             (<= num_vars!4 10000))
        ($main_inv1 num_vars!4 order_reset!5 found!6 i!7 h!8 t!9 todo_size!10 done!11 caseS!12 num!13))))

; loop term $main_sum1 (line 18)
(assert
  (forall ((num_vars!14 Int) (h!18 Int) (todo_size!20 Int) (t!19 Int) (caseS!22 Int) (done!21 Int) (order_reset!15 Int) (found!16 Int) (num!23 Int) (i!17 Int))
    (=> (and (not (< i!17 num_vars!14))
             ($main_inv1 num_vars!14 order_reset!15 found!16 i!17 h!18 t!19 todo_size!20 done!21 caseS!22 num!23))
        ($main_sum1 num_vars!14 order_reset!15 found!16 i!17 h!18 t!19 todo_size!20 done!21 caseS!22 num!23))))

; if then
(assert
  (forall ((num_vars!14 Int) (h!18 Int) (todo_size!20 Int) (t!19 Int) (caseS!22 Int) (done!21 Int) (order_reset!15 Int) (found!16 Int) (num!23 Int) (i!17 Int))
    (=> (and (= t!19 0)
             (< i!17 num_vars!14)
             ($main_inv1 num_vars!14 order_reset!15 found!16 i!17 h!18 t!19 todo_size!20 done!21 caseS!22 num!23))
        ($main_if2 num_vars!14 order_reset!15 found!16 i!17 h!18 t!19 todo_size!20 done!21 caseS!22 num!23 num_vars!14 order_reset!15 0 i!17 h!18 t!19 todo_size!20 done!21 caseS!22 num!23))))

; if else
(assert
  (forall ((num_vars!14 Int) (h!18 Int) (todo_size!20 Int) (t!19 Int) (caseS!22 Int) (done!21 Int) (order_reset!15 Int) (found!16 Int) (num!23 Int) (i!17 Int))
    (=> (and (not (= t!19 0))
             (< i!17 num_vars!14)
             ($main_inv1 num_vars!14 order_reset!15 found!16 i!17 h!18 t!19 todo_size!20 done!21 caseS!22 num!23))
        ($main_if2 num_vars!14 order_reset!15 found!16 i!17 h!18 t!19 todo_size!20 done!21 caseS!22 num!23 num_vars!14 order_reset!15 1 i!17 h!18 t!19 todo_size!20 done!21 caseS!22 num!23))))

; forwards $main_inv1 (line 18)
(assert
  (forall ((t!29 Int) (num_vars!14 Int) (num_vars!24 Int) (h!18 Int) (order_reset!25 Int) (num!33 Int) (todo_size!20 Int) (t!19 Int) (caseS!22 Int) (done!31 Int) (todo_size!30 Int) (done!21 Int) (found!26 Int) (order_reset!15 Int) (num!23 Int) (i!17 Int) (i!27 Int) (caseS!32 Int) (found!16 Int) (h!28 Int))
    (=> (and ($main_if2 num_vars!14 order_reset!15 found!16 i!17 h!18 t!19 todo_size!20 done!21 caseS!22 num!23 num_vars!24 order_reset!25 found!26 i!27 h!28 t!29 todo_size!30 done!31 caseS!32 num!33))
        ($main_inv1 num_vars!24 order_reset!25 found!26 (+ i!27 1) h!28 t!29 todo_size!30 done!31 caseS!32 num!33))))

; loop entry $main_inv2 (line 40)
(assert
  (forall ((found!36 Int) (num_vars!34 Int) (done!41 Int) (i!37 Int) (t!39 Int) (todo_size!40 Int) (caseS!42 Int) (order_reset!35 Int) (num!43 Int) (h!38 Int))
    (=> (and (= done!41 1)
             (= todo_size!40 0)
             ($main_sum1 num_vars!34 order_reset!35 found!36 i!37 h!38 t!39 todo_size!40 done!41 caseS!42 num!43))
        ($main_inv2 num_vars!34 order_reset!35 found!36 0 h!38 t!39 todo_size!40 done!41 caseS!42 num!43))))

; loop term $main_sum2 (line 40)
(assert
  (forall ((done!51 Int) (order_reset!45 Int) (todo_size!50 Int) (found!46 Int) (caseS!52 Int) (num!53 Int) (num_vars!44 Int) (i!47 Int) (h!48 Int) (t!49 Int))
    (=> (and (not (< i!47 num_vars!44))
             ($main_inv2 num_vars!44 order_reset!45 found!46 i!47 h!48 t!49 todo_size!50 done!51 caseS!52 num!53))
        ($main_sum2 num_vars!44 order_reset!45 found!46 i!47 h!48 t!49 todo_size!50 done!51 caseS!52 num!53))))

; label loop
(assert
  (forall ((done!51 Int) (order_reset!45 Int) (todo_size!50 Int) (found!46 Int) (caseS!52 Int) (num!53 Int) (num_vars!44 Int) (i!47 Int) (h!48 Int) (t!49 Int))
    (=> (and (< i!47 num_vars!44)
             ($main_inv2 num_vars!44 order_reset!45 found!46 i!47 h!48 t!49 todo_size!50 done!51 caseS!52 num!53))
        ($main_loop num_vars!44 order_reset!45 found!46 i!47 h!48 t!49 todo_size!50 done!51 caseS!52 num!53 num_vars!44 order_reset!45 found!46 i!47 h!48 t!49 todo_size!50 done!51 caseS!52 num!53))))

; goto loop
(assert
  (forall ((todo_size!60 Int) (order_reset!55 Int) (done!51 Int) (found!56 Int) (order_reset!45 Int) (todo_size!50 Int) (t!59 Int) (caseS!52 Int) (num!53 Int) (num_vars!44 Int) (i!47 Int) (h!58 Int) (caseS!62 Int) (found!46 Int) (num_vars!54 Int) (num!63 Int) (done!61 Int) (h!48 Int) (i!57 Int) (t!49 Int))
    (=> (and (= h!58 0)
             ($main_loop num_vars!44 order_reset!45 found!46 i!47 h!48 t!49 todo_size!50 done!51 caseS!52 num!53 num_vars!54 order_reset!55 found!56 i!57 h!58 t!59 todo_size!60 done!61 caseS!62 num!63))
        ($main_loop num_vars!44 order_reset!45 found!46 i!47 h!48 t!49 todo_size!50 done!51 caseS!52 num!53 num_vars!54 order_reset!55 found!56 (+ i!57 1) (+ h!58 1) t!59 todo_size!60 done!61 caseS!62 num!63))))

; if else
(assert
  (forall ((todo_size!60 Int) (order_reset!55 Int) (done!51 Int) (found!56 Int) (order_reset!45 Int) (todo_size!50 Int) (t!59 Int) (caseS!52 Int) (num!53 Int) (num_vars!44 Int) (i!47 Int) (h!58 Int) (caseS!62 Int) (found!46 Int) (num_vars!54 Int) (num!63 Int) (done!61 Int) (h!48 Int) (i!57 Int) (t!49 Int))
    (=> (and (not (= h!58 0))
             ($main_loop num_vars!44 order_reset!45 found!46 i!47 h!48 t!49 todo_size!50 done!51 caseS!52 num!53 num_vars!54 order_reset!55 found!56 i!57 h!58 t!59 todo_size!60 done!61 caseS!62 num!63))
        ($main_if3 num_vars!44 order_reset!45 found!46 i!47 h!48 t!49 todo_size!50 done!51 caseS!52 num!53 num_vars!54 order_reset!55 found!56 i!57 h!58 t!59 todo_size!60 done!61 caseS!62 num!63))))

; loop entry $main_inv3 (line 50)
(assert
  (forall ((caseS!72 Int) (done!51 Int) (todo_size!70 Int) (num_vars!64 Int) (i!67 Int) (found!66 Int) (order_reset!65 Int) (todo_size!50 Int) (done!71 Int) (found!46 Int) (num!73 Int) (caseS!52 Int) (num!53 Int) (num_vars!44 Int) (i!47 Int) (h!68 Int) (t!69 Int) (order_reset!45 Int) (h!48 Int) (t!49 Int))
    (=> (and ($main_if3 num_vars!44 order_reset!45 found!46 i!47 h!48 t!49 todo_size!50 done!51 caseS!52 num!53 num_vars!64 order_reset!65 found!66 i!67 h!68 t!69 todo_size!70 done!71 caseS!72 num!73))
        ($main_inv3 num_vars!64 order_reset!65 found!66 i!67 h!68 t!69 (+ todo_size!70 1) done!71 caseS!72 num!73))))

; loop term $main_sum3 (line 50)
(assert
  (forall ((num!83 Int) (todo_size!80 Int) (h!78 Int) (order_reset!75 Int) (i!77 Int) (t!79 Int) (found!76 Int) (done!81 Int) (caseS!82 Int) (num_vars!74 Int))
    (=> (and (not (> todo_size!80 0))
             ($main_inv3 num_vars!74 order_reset!75 found!76 i!77 h!78 t!79 todo_size!80 done!81 caseS!82 num!83))
        ($main_sum3 num_vars!74 order_reset!75 found!76 i!77 h!78 t!79 todo_size!80 done!81 caseS!82 num!83))))

; label start
(assert
  (forall ((num!83 Int) (todo_size!80 Int) (h!78 Int) (order_reset!75 Int) (i!77 Int) (t!79 Int) (found!76 Int) (done!81 Int) (caseS!82 Int) (num_vars!74 Int))
    (=> (and (> todo_size!80 0)
             ($main_inv3 num_vars!74 order_reset!75 found!76 i!77 h!78 t!79 todo_size!80 done!81 caseS!82 num!83))
        ($main_start num_vars!74 order_reset!75 found!76 i!77 h!78 t!79 todo_size!80 done!81 caseS!82 num!83 num_vars!74 order_reset!75 found!76 i!77 h!78 t!79 todo_size!80 done!81 caseS!82 num!83))))

; goto start
(assert
  (forall ((todo_size!90 Int) (num!83 Int) (todo_size!80 Int) (num!93 Int) (found!86 Int) (h!78 Int) (order_reset!75 Int) (order_reset!85 Int) (caseS!92 Int) (t!89 Int) (h!88 Int) (found!76 Int) (i!87 Int) (done!81 Int) (caseS!82 Int) (num_vars!74 Int) (done!91 Int) (i!77 Int) (num_vars!84 Int) (t!79 Int))
    (=> (and (= done!91 1)
             ($main_start num_vars!74 order_reset!75 found!76 i!77 h!78 t!79 todo_size!80 done!81 caseS!82 num!83 num_vars!84 order_reset!85 found!86 i!87 h!88 t!89 todo_size!90 done!91 caseS!92 num!93))
        ($main_start num_vars!74 order_reset!75 found!76 i!77 h!78 t!79 todo_size!80 done!81 caseS!82 num!83 num_vars!84 (+ order_reset!85 1) found!86 i!87 h!88 t!89 (- todo_size!90 1) 0 caseS!92 num!93))))

; if else
(assert
  (forall ((todo_size!90 Int) (num!83 Int) (todo_size!80 Int) (num!93 Int) (found!86 Int) (h!78 Int) (order_reset!75 Int) (order_reset!85 Int) (caseS!92 Int) (t!89 Int) (h!88 Int) (found!76 Int) (i!87 Int) (done!81 Int) (caseS!82 Int) (num_vars!74 Int) (done!91 Int) (i!77 Int) (num_vars!84 Int) (t!79 Int))
    (=> (and (not (= done!91 1))
             ($main_start num_vars!74 order_reset!75 found!76 i!77 h!78 t!79 todo_size!80 done!81 caseS!82 num!83 num_vars!84 order_reset!85 found!86 i!87 h!88 t!89 todo_size!90 done!91 caseS!92 num!93))
        ($main_if4 num_vars!74 order_reset!75 found!76 i!77 h!78 t!79 todo_size!80 done!81 caseS!82 num!83 num_vars!84 order_reset!85 found!86 i!87 h!88 t!89 todo_size!90 done!91 caseS!92 num!93))))

; loop entry $main_inv4 (line 93)
(assert
  (forall ((num!83 Int) (t!99 Int) (todo_size!80 Int) (caseS!102 Int) (num_vars!94 Int) (order_reset!95 Int) (todo_size!100 Int) (h!78 Int) (order_reset!75 Int) (num!103 Int) (i!97 Int) (i!77 Int) (found!76 Int) (done!81 Int) (caseS!82 Int) (num_vars!74 Int) (found!96 Int) (h!98 Int) (done!101 Int) (t!79 Int))
    (=> (and (<= 0 num!103)
             (<= num!103 1)
             (not (= caseS!102 1))
             (not (= caseS!102 0))
             ($main_if4 num_vars!74 order_reset!75 found!76 i!77 h!78 t!79 todo_size!80 done!81 caseS!82 num!83 num_vars!94 order_reset!95 found!96 i!97 h!98 t!99 todo_size!100 done!101 caseS!102 num!103))
        ($main_inv4 num_vars!94 (+ order_reset!95 1) found!96 i!97 h!98 t!99 todo_size!100 done!101 caseS!102 num!103))))

; loop term $main_sum4 (line 93)
(assert
  (forall ((t!109 Int) (num!113 Int) (found!106 Int) (num_vars!104 Int) (caseS!112 Int) (done!111 Int) (h!108 Int) (i!107 Int) (todo_size!110 Int) (order_reset!105 Int))
    (=> (and (not (< 0 num!113))
             ($main_inv4 num_vars!104 order_reset!105 found!106 i!107 h!108 t!109 todo_size!110 done!111 caseS!112 num!113))
        ($main_sum4 num_vars!104 order_reset!105 found!106 i!107 h!108 t!109 todo_size!110 done!111 caseS!112 num!113))))

; goto start
(assert
  (forall ((t!109 Int) (num!113 Int) (found!106 Int) (num_vars!104 Int) (caseS!112 Int) (done!111 Int) (h!108 Int) (i!107 Int) (todo_size!110 Int) (order_reset!105 Int))
    (=> (and (= done!111 1)
             (< 0 num!113)
             ($main_inv4 num_vars!104 order_reset!105 found!106 i!107 h!108 t!109 todo_size!110 done!111 caseS!112 num!113))
        ($main_start num_vars!104 order_reset!105 found!106 i!107 h!108 t!109 todo_size!110 done!111 caseS!112 num!113 num_vars!104 order_reset!105 found!106 i!107 h!108 t!109 todo_size!110 done!111 caseS!112 (- num!113 1)))))

; if else
(assert
  (forall ((t!109 Int) (num!113 Int) (found!106 Int) (num_vars!104 Int) (caseS!112 Int) (done!111 Int) (h!108 Int) (i!107 Int) (todo_size!110 Int) (order_reset!105 Int))
    (=> (and (not (= done!111 1))
             (< 0 num!113)
             ($main_inv4 num_vars!104 order_reset!105 found!106 i!107 h!108 t!109 todo_size!110 done!111 caseS!112 num!113))
        ($main_if5 num_vars!104 order_reset!105 found!106 i!107 h!108 t!109 todo_size!110 done!111 caseS!112 num!113 num_vars!104 order_reset!105 found!106 i!107 h!108 t!109 todo_size!110 done!111 caseS!112 (- num!113 1)))))

; goto start
(assert
  (forall ((t!109 Int) (i!117 Int) (h!118 Int) (t!119 Int) (num!113 Int) (num_vars!104 Int) (done!111 Int) (h!108 Int) (i!107 Int) (found!106 Int) (todo_size!120 Int) (caseS!112 Int) (caseS!122 Int) (found!116 Int) (num_vars!114 Int) (order_reset!115 Int) (done!121 Int) (todo_size!110 Int) (num!123 Int) (order_reset!105 Int))
    (=> (and ($main_if5 num_vars!104 order_reset!105 found!106 i!107 h!108 t!109 todo_size!110 done!111 caseS!112 num!113 num_vars!114 order_reset!115 found!116 i!117 h!118 t!119 todo_size!120 done!121 caseS!122 num!123))
        ($main_start num_vars!104 order_reset!105 found!106 i!107 h!108 t!109 todo_size!110 done!111 caseS!112 num!113 num_vars!114 order_reset!115 found!116 i!117 h!118 t!119 (+ todo_size!120 1) done!121 caseS!122 num!123))))

; if then
(assert
  (forall ((num!83 Int) (t!99 Int) (todo_size!80 Int) (caseS!102 Int) (num_vars!94 Int) (order_reset!95 Int) (todo_size!100 Int) (h!78 Int) (order_reset!75 Int) (num!103 Int) (i!97 Int) (i!77 Int) (found!76 Int) (done!81 Int) (caseS!82 Int) (num_vars!74 Int) (found!96 Int) (h!98 Int) (done!101 Int) (t!79 Int))
    (=> (and (= caseS!102 1)
             (not (= caseS!102 0))
             ($main_if4 num_vars!74 order_reset!75 found!76 i!77 h!78 t!79 todo_size!80 done!81 caseS!82 num!83 num_vars!94 order_reset!95 found!96 i!97 h!98 t!99 todo_size!100 done!101 caseS!102 num!103))
        ($main_if6 num_vars!74 order_reset!75 found!76 i!77 h!78 t!79 todo_size!80 done!81 caseS!82 num!83 num_vars!94 (+ order_reset!95 1) found!96 i!97 h!98 t!99 todo_size!100 done!101 caseS!102 num!103))))

; if else
(assert
  (forall ((num!83 Int) (todo_size!80 Int) (order_reset!75 Int) (caseS!132 Int) (t!79 Int) (done!131 Int) (num_vars!124 Int) (h!128 Int) (found!126 Int) (found!76 Int) (done!81 Int) (t!129 Int) (order_reset!125 Int) (todo_size!130 Int) (h!78 Int) (caseS!82 Int) (num_vars!74 Int) (i!127 Int) (num!133 Int) (i!77 Int))
    (=> (and ($main_sum4 num_vars!124 order_reset!125 found!126 i!127 h!128 t!129 todo_size!130 done!131 caseS!132 num!133))
        ($main_if6 num_vars!74 order_reset!75 found!76 i!77 h!78 t!79 todo_size!80 done!81 caseS!82 num!83 num_vars!124 order_reset!125 found!126 i!127 h!128 t!129 (- todo_size!130 1) 1 caseS!132 num!133))))

; if then
(assert
  (forall ((num!83 Int) (t!99 Int) (todo_size!80 Int) (caseS!102 Int) (num_vars!94 Int) (order_reset!95 Int) (todo_size!100 Int) (h!78 Int) (order_reset!75 Int) (num!103 Int) (i!97 Int) (i!77 Int) (found!76 Int) (done!81 Int) (caseS!82 Int) (num_vars!74 Int) (found!96 Int) (h!98 Int) (done!101 Int) (t!79 Int))
    (=> (and (= caseS!102 0)
             ($main_if4 num_vars!74 order_reset!75 found!76 i!77 h!78 t!79 todo_size!80 done!81 caseS!82 num!83 num_vars!94 order_reset!95 found!96 i!97 h!98 t!99 todo_size!100 done!101 caseS!102 num!103))
        ($main_if7 num_vars!74 order_reset!75 found!76 i!77 h!78 t!79 todo_size!80 done!81 caseS!82 num!83 num_vars!94 (+ (+ order_reset!95 1) 1) found!96 i!97 h!98 t!99 (- todo_size!100 1) 0 caseS!102 num!103))))

; if else
(assert
  (forall ((num!83 Int) (h!138 Int) (h!78 Int) (order_reset!75 Int) (order_reset!135 Int) (i!137 Int) (t!79 Int) (todo_size!80 Int) (done!141 Int) (todo_size!140 Int) (num_vars!134 Int) (found!76 Int) (done!81 Int) (t!139 Int) (found!136 Int) (caseS!82 Int) (num_vars!74 Int) (caseS!142 Int) (num!143 Int) (i!77 Int))
    (=> (and ($main_if6 num_vars!74 order_reset!75 found!76 i!77 h!78 t!79 todo_size!80 done!81 caseS!82 num!83 num_vars!134 order_reset!135 found!136 i!137 h!138 t!139 todo_size!140 done!141 caseS!142 num!143))
        ($main_if7 num_vars!74 order_reset!75 found!76 i!77 h!78 t!79 todo_size!80 done!81 caseS!82 num!83 num_vars!134 order_reset!135 found!136 i!137 h!138 t!139 todo_size!140 done!141 caseS!142 num!143))))

; forwards $main_inv3 (line 50)
(assert
  (forall ((num!83 Int) (todo_size!80 Int) (order_reset!145 Int) (i!147 Int) (h!148 Int) (h!78 Int) (num_vars!144 Int) (done!151 Int) (found!146 Int) (t!149 Int) (i!77 Int) (found!76 Int) (done!81 Int) (num!153 Int) (order_reset!75 Int) (caseS!82 Int) (num_vars!74 Int) (todo_size!150 Int) (caseS!152 Int) (t!79 Int))
    (=> (and ($main_if7 num_vars!74 order_reset!75 found!76 i!77 h!78 t!79 todo_size!80 done!81 caseS!82 num!83 num_vars!144 order_reset!145 found!146 i!147 h!148 t!149 todo_size!150 done!151 caseS!152 num!153))
        ($main_inv3 num_vars!144 order_reset!145 found!146 i!147 h!148 t!149 todo_size!150 done!151 caseS!152 num!153))))

; forwards $main_inv2 (line 40)
(assert
  (forall ((todo_size!160 Int) (found!156 Int) (num!163 Int) (caseS!162 Int) (i!157 Int) (done!161 Int) (num_vars!154 Int) (h!158 Int) (order_reset!155 Int) (t!159 Int))
    (=> (and ($main_sum3 num_vars!154 order_reset!155 found!156 i!157 h!158 t!159 todo_size!160 done!161 caseS!162 num!163))
        ($main_inv2 num_vars!154 order_reset!155 found!156 (+ i!157 1) (- h!158 1) t!159 todo_size!160 done!161 caseS!162 num!163))))

; VERIFIER_assert (>= todo_size!170 0)
(assert
  (forall ((found!166 Int) (h!168 Int) (t!169 Int) (caseS!172 Int) (order_reset!165 Int) (num_vars!164 Int) (todo_size!170 Int) (num!173 Int) (i!167 Int) (done!171 Int))
    (=> (and (not (>= todo_size!170 0))
             ($main_sum2 num_vars!164 order_reset!165 found!166 i!167 h!168 t!169 todo_size!170 done!171 caseS!172 num!173))
        false)))

(check-sat)
